MARKOV
223
 2 2 2 2 2 2 2 2 2 2 2 2 2 2 2 2 2 2 2 2 2 2 2 2 2 2 2 2 2 2 2 2 2 2 2 2 2 2 2 2 2 2 2 2 2 2 2 2 2 2 2 2 2 2 2 2 2 2 2 2 2 2 2 2 2 2 2 2 2 2 2 2 2 2 2 2 2 2 2 2 2 2 2 2 2 2 2 2 2 2 2 2 2 2 2 2 2 2 2 2 2 2 2 2 2 2 2 2 2 2 2 2 2 2 2 2 2 2 2 2 2 2 2 2 2 2 2 2 2 2 2 2 2 2 2 2 2 2 2 2 2 2 2 2 2 2 2 2 2 2 2 2 2 2 2 2 2 2 2 2 2 2 2 2 2 2 2 2 2 2 2 2 2 2 2 2 2 2 2 2 2 2 2 2 2 2 2 2 2 2 2 2 2 2 2 2 2 2 2 2 2 2 2 2 2 2 2 2 2 2 2 2 2 2 2 2 2 2 2 2 2 2 2
830
1	0 
1	1 
1	2 
1	3 
1	4 
1	5 
1	6 
1	7 
1	8 
1	9 
1	10 
1	11 
1	12 
1	13 
1	14 
1	15 
1	16 
1	17 
1	18 
1	19 
1	20 
1	21 
1	22 
1	23 
1	24 
1	25 
1	26 
1	27 
1	28 
1	29 
1	30 
1	31 
1	32 
1	33 
1	34 
1	35 
1	36 
1	37 
1	38 
1	39 
1	40 
1	41 
1	42 
1	43 
1	44 
1	45 
1	46 
1	47 
1	48 
1	49 
1	50 
1	51 
1	52 
1	53 
1	54 
1	55 
1	56 
1	57 
1	58 
1	59 
1	60 
1	61 
1	62 
1	63 
1	64 
1	65 
1	66 
1	67 
1	68 
1	69 
1	70 
1	71 
1	72 
1	73 
1	74 
1	75 
1	76 
1	77 
1	78 
1	79 
1	80 
1	81 
1	82 
1	83 
1	84 
1	85 
1	86 
1	87 
1	88 
1	89 
1	90 
1	91 
1	92 
1	93 
1	94 
1	95 
1	96 
1	97 
1	98 
1	99 
1	100 
1	101 
1	102 
1	103 
1	104 
1	105 
1	106 
1	107 
1	108 
1	109 
1	110 
1	111 
1	112 
1	113 
1	114 
1	115 
1	116 
1	117 
1	118 
1	119 
1	120 
1	121 
1	122 
1	123 
1	124 
1	125 
1	126 
1	127 
1	128 
1	129 
1	130 
1	131 
1	132 
1	133 
1	134 
1	135 
1	136 
1	137 
1	138 
1	139 
1	140 
1	141 
1	142 
1	143 
1	144 
1	145 
1	146 
1	147 
1	148 
1	149 
1	150 
1	151 
1	152 
1	153 
1	154 
1	155 
1	156 
1	157 
1	158 
1	159 
1	160 
1	161 
1	162 
1	163 
1	164 
1	165 
1	166 
1	167 
1	168 
1	169 
1	170 
1	171 
1	172 
1	173 
1	174 
1	175 
1	176 
1	177 
1	178 
1	179 
1	180 
1	181 
1	182 
1	183 
1	184 
1	185 
1	186 
1	187 
1	188 
1	189 
1	190 
1	191 
1	192 
1	193 
1	194 
1	195 
1	196 
1	197 
1	198 
1	199 
1	200 
1	201 
1	202 
1	203 
1	204 
1	205 
1	206 
1	207 
1	208 
1	209 
1	210 
1	211 
1	212 
1	213 
1	214 
1	215 
1	216 
1	217 
1	218 
1	219 
1	220 
1	221 
1	222 
2	1 2 
2	1 24 
2	1 25 
2	1 185 
2	2 50 
2	2 51 
2	2 185 
2	3 4 
2	3 5 
2	3 6 
2	3 66 
2	4 6 
2	4 8 
2	4 143 
2	5 6 
2	5 66 
2	5 67 
2	5 120 
2	5 121 
2	6 7 
2	6 8 
2	6 120 
2	6 191 
2	7 110 
2	7 117 
2	7 120 
2	7 133 
2	7 191 
2	7 194 
2	8 143 
2	8 144 
2	8 191 
2	9 11 
2	9 12 
2	9 17 
2	10 12 
2	10 13 
2	10 16 
2	11 12 
2	12 14 
2	12 16 
2	13 16 
2	13 18 
2	13 170 
2	13 172 
2	14 15 
2	14 16 
2	14 17 
2	14 169 
2	14 174 
2	14 178 
2	15 17 
2	15 169 
2	15 174 
2	15 175 
2	16 169 
2	16 170 
2	18 168 
2	18 172 
2	19 21 
2	19 27 
2	19 89 
2	19 146 
2	19 222 
2	20 21 
2	20 58 
2	20 59 
2	20 134 
2	20 136 
2	20 221 
2	20 222 
2	21 27 
2	21 136 
2	21 140 
2	21 222 
2	22 23 
2	22 25 
2	22 70 
2	22 97 
2	23 24 
2	23 25 
2	23 47 
2	23 48 
2	23 97 
2	24 25 
2	24 47 
2	24 123 
2	24 185 
2	26 27 
2	26 28 
2	26 29 
2	26 91 
2	26 93 
2	26 137 
2	27 29 
2	27 89 
2	27 137 
2	27 140 
2	28 29 
2	28 88 
2	28 91 
2	29 87 
2	29 88 
2	29 89 
2	30 31 
2	30 33 
2	30 138 
2	30 139 
2	30 216 
2	31 33 
2	31 52 
2	31 54 
2	31 139 
2	32 33 
2	32 52 
2	32 53 
2	32 95 
2	32 197 
2	32 198 
2	32 202 
2	33 52 
2	33 197 
2	33 216 
2	34 62 
2	34 63 
2	34 79 
2	34 171 
2	34 177 
2	34 218 
2	35 36 
2	35 40 
2	35 125 
2	35 127 
2	35 179 
2	35 183 
2	36 37 
2	36 38 
2	36 40 
2	36 127 
2	37 38 
2	37 39 
2	37 127 
2	37 203 
2	38 39 
2	38 40 
2	39 75 
2	39 203 
2	40 179 
2	40 184 
2	41 44 
2	41 46 
2	41 115 
2	41 116 
2	42 45 
2	42 46 
2	42 56 
2	42 61 
2	42 111 
2	42 116 
2	42 212 
2	43 44 
2	43 45 
2	43 46 
2	43 174 
2	43 175 
2	44 46 
2	44 175 
2	45 46 
2	45 61 
2	45 173 
2	45 174 
2	46 116 
2	47 48 
2	47 49 
2	47 123 
2	48 49 
2	48 94 
2	48 96 
2	48 97 
2	49 96 
2	49 122 
2	49 123 
2	50 51 
2	50 181 
2	51 180 
2	51 181 
2	51 185 
2	52 53 
2	52 54 
2	52 55 
2	53 55 
2	53 73 
2	53 74 
2	53 95 
2	54 55 
2	54 90 
2	54 139 
2	54 187 
2	54 188 
2	55 72 
2	55 73 
2	55 187 
2	56 60 
2	56 61 
2	56 212 
2	57 58 
2	57 59 
2	57 60 
2	57 63 
2	57 221 
2	58 59 
2	58 60 
2	58 134 
2	58 211 
2	59 221 
2	60 61 
2	60 62 
2	60 63 
2	60 211 
2	61 62 
2	61 173 
2	62 63 
2	62 173 
2	62 176 
2	62 177 
2	63 218 
2	63 221 
2	64 65 
2	64 66 
2	64 67 
2	65 67 
2	65 100 
2	65 112 
2	65 114 
2	65 119 
2	66 67 
2	67 119 
2	67 121 
2	68 71 
2	68 72 
2	68 187 
2	69 70 
2	69 72 
2	69 73 
2	70 73 
2	70 74 
2	70 97 
2	71 92 
2	71 187 
2	71 188 
2	72 73 
2	72 187 
2	73 74 
2	74 95 
2	74 97 
2	75 77 
2	75 151 
2	75 153 
2	75 203 
2	76 78 
2	76 103 
2	77 78 
2	77 151 
2	77 155 
2	78 103 
2	78 155 
2	79 82 
2	79 83 
2	79 171 
2	79 218 
2	79 220 
2	80 81 
2	80 82 
2	80 83 
2	80 189 
2	80 190 
2	81 82 
2	81 168 
2	82 83 
2	82 168 
2	82 171 
2	83 190 
2	83 220 
2	84 86 
2	84 128 
2	84 131 
2	84 198 
2	84 199 
2	84 217 
2	85 86 
2	85 126 
2	85 196 
2	85 200 
2	85 205 
2	85 207 
2	86 131 
2	86 196 
2	86 199 
2	86 204 
2	87 88 
2	87 89 
2	87 146 
2	87 156 
2	87 161 
2	88 159 
2	88 161 
2	89 146 
2	90 92 
2	90 93 
2	90 139 
2	90 141 
2	90 188 
2	91 92 
2	91 93 
2	92 93 
2	92 188 
2	93 137 
2	93 141 
2	94 95 
2	94 96 
2	94 97 
2	94 200 
2	94 201 
2	94 202 
2	95 97 
2	95 202 
2	96 122 
2	96 200 
2	98 100 
2	98 101 
2	98 102 
2	98 112 
2	98 113 
2	99 101 
2	99 102 
2	99 118 
2	99 129 
2	99 130 
2	99 132 
2	100 102 
2	100 112 
2	100 119 
2	100 121 
2	101 102 
2	101 113 
2	101 129 
2	101 209 
2	101 214 
2	102 118 
2	102 121 
2	103 104 
2	103 154 
2	103 155 
2	104 106 
2	104 107 
2	104 154 
2	105 106 
2	105 107 
2	105 142 
2	105 144 
2	105 164 
2	105 166 
2	106 107 
2	106 142 
2	107 154 
2	107 164 
2	108 109 
2	108 110 
2	108 192 
2	108 193 
2	108 194 
2	108 204 
2	108 207 
2	109 165 
2	109 193 
2	109 206 
2	109 208 
2	110 131 
2	110 133 
2	110 194 
2	110 204 
2	111 112 
2	111 113 
2	111 116 
2	111 212 
2	112 113 
2	112 114 
2	112 115 
2	112 116 
2	113 209 
2	113 212 
2	114 115 
2	115 116 
2	117 118 
2	117 120 
2	117 132 
2	117 133 
2	118 120 
2	118 121 
2	118 132 
2	119 121 
2	120 121 
2	122 123 
2	122 125 
2	122 126 
2	122 182 
2	122 183 
2	122 200 
2	123 182 
2	123 185 
2	124 125 
2	124 126 
2	124 127 
2	124 205 
2	124 206 
2	124 208 
2	125 126 
2	125 127 
2	125 183 
2	126 200 
2	126 205 
2	127 203 
2	127 208 
2	128 130 
2	128 131 
2	128 132 
2	128 133 
2	128 217 
2	129 130 
2	129 214 
2	129 215 
2	130 132 
2	130 215 
2	130 217 
2	131 133 
2	131 204 
2	132 133 
2	134 135 
2	134 136 
2	134 210 
2	134 211 
2	135 136 
2	135 138 
2	135 210 
2	135 213 
2	136 138 
2	136 140 
2	137 140 
2	137 141 
2	138 139 
2	138 140 
2	138 213 
2	138 216 
2	139 140 
2	139 141 
2	140 141 
2	142 143 
2	142 144 
2	143 144 
2	144 166 
2	144 191 
2	144 195 
2	145 148 
2	145 150 
2	145 158 
2	146 147 
2	146 149 
2	146 156 
2	146 219 
2	146 222 
2	147 148 
2	147 149 
2	147 190 
2	147 219 
2	147 220 
2	148 149 
2	148 150 
2	148 157 
2	148 158 
2	148 190 
2	149 156 
2	149 157 
2	150 189 
2	150 190 
2	151 152 
2	151 153 
2	151 155 
2	152 153 
2	152 154 
2	152 155 
2	152 164 
2	152 165 
2	153 165 
2	153 203 
2	153 208 
2	154 155 
2	154 164 
2	156 157 
2	156 160 
2	156 161 
2	157 158 
2	157 160 
2	158 160 
2	158 163 
2	159 160 
2	159 161 
2	159 162 
2	160 161 
2	160 162 
2	160 163 
2	162 163 
2	164 165 
2	164 166 
2	164 167 
2	165 167 
2	165 193 
2	165 208 
2	166 167 
2	166 192 
2	166 195 
2	167 192 
2	167 193 
2	168 171 
2	168 172 
2	169 170 
2	169 173 
2	169 174 
2	169 175 
2	169 176 
2	169 178 
2	170 172 
2	170 176 
2	171 172 
2	171 177 
2	172 176 
2	172 177 
2	173 174 
2	173 176 
2	173 178 
2	174 175 
2	174 178 
2	176 177 
2	179 183 
2	179 184 
2	179 186 
2	180 181 
2	180 182 
2	180 185 
2	180 186 
2	181 184 
2	181 186 
2	182 183 
2	182 185 
2	182 186 
2	183 186 
2	184 186 
2	187 188 
2	189 190 
2	190 220 
2	191 194 
2	191 195 
2	192 193 
2	192 194 
2	192 195 
2	194 195 
2	196 199 
2	196 200 
2	196 201 
2	197 198 
2	197 216 
2	197 217 
2	198 199 
2	198 202 
2	198 217 
2	199 201 
2	199 202 
2	200 201 
2	201 202 
2	203 208 
2	204 207 
2	205 206 
2	205 207 
2	206 207 
2	206 208 
2	209 210 
2	209 211 
2	209 212 
2	209 214 
2	210 211 
2	210 213 
2	210 214 
2	211 212 
2	213 214 
2	213 215 
2	213 216 
2	214 215 
2	215 216 
2	215 217 
2	216 217 
2	218 220 
2	218 221 
2	219 220 
2	219 221 
2	219 222 
2	220 221 
2	221 222 
0	

2
 0.252912 1
2
 1 0.424897
2
 1 0.51197
2
 0.219013 1
2
 0.310933 1
2
 0.0419827 1
2
 0.181812 1
2
 0.051063 1
2
 0.144887 1
2
 1 0.12147
2
 1 0.139684
2
 1 0.12213
2
 1 0.164566
2
 1 0.216449
2
 1 0.124007
2
 1 0.130862
2
 1 0.143658
2
 1 0.0831214
2
 1 0.19437
2
 0.291106 1
2
 0.211735 1
2
 0.225654 1
2
 1 0.25739
2
 1 0.207313
2
 1 0.115599
2
 1 0.199237
2
 0.155292 1
2
 1 0.379374
2
 1 0.0843708
2
 0.354485 1
2
 0.0982718 1
2
 0.147843 1
2
 0.0595482 1
2
 0.0173497 1
2
 0.243953 1
2
 1 0.0571318
2
 1 0.0905302
2
 1 0.253439
2
 1 0.088335
2
 1 0.130735
2
 1 0.0954988
2
 1 0.574879
2
 0.586132 1
2
 1 0.121995
2
 1 0.174721
2
 1 0.136561
2
 1 0.674701
2
 1 0.138535
2
 1 0.460704
2
 1 0.482225
2
 1 0.221762
2
 1 0.219177
2
 0.537577 1
2
 0.484409 1
2
 0.17187 1
2
 0.254721 1
2
 0.167635 1
2
 0.211025 1
2
 0.0962484 1
2
 0.145548 1
2
 0.246432 1
2
 0.21847 1
2
 0.124506 1
2
 0.131718 1
2
 1 0.240906
2
 1 0.144598
2
 0.986305 1
2
 0.159102 1
2
 1 0.0772626
2
 1 0.0564686
2
 1 0.196104
2
 1 0.0511039
2
 1 0.142943
2
 0.932416 1
2
 1 0.445991
2
 0.302044 1
2
 1 0.851929
2
 1 0.750065
2
 1 0.395443
2
 0.416997 1
2
 1 0.309215
2
 1 0.469834
2
 1 0.591778
2
 1 0.49791
2
 0.0803054 1
2
 0.0328142 1
2
 0.0944669 1
2
 1 0.270575
2
 1 0.075663
2
 1 0.577343
2
 0.750577 1
2
 1 0.0542493
2
 1 0.130744
2
 0.0587969 1
2
 0.363398 1
2
 0.113329 1
2
 0.47545 1
2
 1 0.494359
2
 0.352859 1
2
 0.062924 1
2
 0.244485 1
2
 0.301409 1
2
 0.148265 1
2
 0.700518 1
2
 0.839178 1
2
 0.336088 1
2
 0.888745 1
2
 0.469551 1
2
 0.0211647 1
2
 0.030718 1
2
 0.0519052 1
2
 0.101023 1
2
 0.351075 1
2
 0.19472 1
2
 1 0.546858
2
 1 0.443692
2
 0.434458 1
2
 0.013945 1
2
 0.0269789 1
2
 0.0567907 1
2
 0.166093 1
2
 0.0450499 1
2
 0.421342 1
2
 1 0.649896
2
 0.894464 1
2
 1 0.807599
2
 0.430284 1
2
 0.179811 1
2
 0.143935 1
2
 0.242225 1
2
 0.152636 1
2
 0.0791928 1
2
 0.0440923 1
2
 0.0122902 1
2
 0.0191875 1
2
 0.0293935 1
2
 0.0735734 1
2
 0.118341 1
2
 0.507438 1
2
 0.0485167 1
2
 0.110768 1
2
 0.275783 1
2
 1 0.93395
2
 1 0.298245
2
 0.229462 1
2
 1 0.0975486
2
 0.415306 1
2
 0.0593599 1
2
 0.295261 1
2
 0.260229 1
2
 1 0.553045
2
 0.301243 1
2
 0.105276 1
2
 0.0343029 1
2
 0.328148 1
2
 0.258543 1
2
 0.643978 1
2
 1 0.54568
2
 1 0.299916
2
 1 0.0307974
2
 1 0.0322336
2
 1 0.0518082
2
 1 0.0137024
2
 1 0.0163338
2
 0.712529 1
2
 0.0324174 1
2
 0.258459 1
2
 0.0528073 1
2
 1 0.31413
2
 1 0.178516
2
 1 0.117484
2
 1 0.692217
2
 1 0.166761
2
 1 0.156337
2
 1 0.109686
2
 1 0.152766
2
 1 0.572548
2
 1 0.828247
2
 1 0.137211
2
 1 0.0453066
2
 1 0.155133
2
 1 0.139927
2
 1 0.0699894
2
 1 0.175748
2
 1 0.0805025
2
 1 0.471902
2
 1 0.0268732
2
 0.29271 1
2
 0.491346 1
2
 0.22188 1
2
 0.279355 1
2
 0.0259163 1
2
 0.0364902 1
2
 0.0253765 1
2
 0.136356 1
2
 0.015883 1
2
 0.158186 1
2
 0.0844224 1
2
 0.0230639 1
2
 0.0971646 1
2
 0.104618 1
2
 0.0699798 1
2
 0.0307628 1
2
 0.117255 1
2
 0.075103 1
2
 0.0737306 1
2
 0.0593674 1
2
 0.102067 1
2
 0.0209354 1
2
 0.0453111 1
2
 0.143212 1
2
 0.0831191 1
2
 0.0863334 1
2
 0.18922 1
2
 0.363844 1
2
 0.133367 1
2
 0.0769168 1
2
 0.0319279 1
2
 0.174487 1
2
 0.248611 1
2
 0.0676966 1
2
 0.0636618 1
2
 0.496406 1
4
 1 0.290081 0.290081 0.969163
4
 1 0.293433 0.293433 0.970744
4
 1 0.295345 0.295345 0.966773
4
 1 0.290706 0.290706 0.972434
4
 1 0.284626 0.284626 0.973252
4
 1 0.286179 0.286179 0.973417
4
 1 0.288103 0.288103 0.973636
4
 0.932937 0.249475 0.249475 1
4
 0.938558 0.255297 0.255297 1
4
 0.93877 0.253649 0.253649 1
4
 0.934352 0.253048 0.253048 1
4
 0.938243 0.252052 0.252052 1
4
 0.935035 0.248708 0.248708 1
4
 0.930322 0.245374 0.245374 1
4
 0.943897 0.257933 0.257933 1
4
 0.939454 0.257322 0.257322 1
4
 0.942677 0.260781 0.260781 1
4
 0.947614 0.261623 0.261623 1
4
 0.948092 0.264037 0.264037 1
4
 0.951507 0.260906 0.260906 1
4
 0.940881 0.252869 0.252869 1
4
 0.947827 0.259934 0.259934 1
4
 0.946179 0.256215 0.256215 1
4
 0.964579 0.268299 0.268299 1
4
 0.958962 0.26696 0.26696 1
4
 0.955254 0.264638 0.264638 1
4
 0.964471 0.269843 0.269843 1
4
 0.953593 0.260852 0.260852 1
4
 0.958963 0.264303 0.264303 1
4
 0.932938 0.24617 0.24617 1
4
 0.938139 0.248481 0.248481 1
4
 0.942944 0.252816 0.252816 1
4
 0.952407 0.297507 0.297507 1
4
 0.956963 0.300349 0.300349 1
4
 0.951552 0.29432 0.29432 1
4
 0.967336 0.30926 0.30926 1
4
 0.97645 0.315808 0.315808 1
4
 0.970874 0.310358 0.310358 1
4
 0.957716 0.30231 0.30231 1
4
 0.961218 0.301869 0.301869 1
4
 0.965817 0.30628 0.30628 1
4
 0.974916 0.312765 0.312765 1
4
 0.984598 0.322334 0.322334 1
4
 0.978481 0.314398 0.314398 1
4
 0.983218 0.318609 0.318609 1
4
 0.954496 0.293504 0.293504 1
4
 0.964733 0.30294 0.30294 1
4
 0.955783 0.295809 0.295809 1
4
 0.963976 0.300474 0.300474 1
4
 0.959763 0.296122 0.296122 1
4
 0.962624 0.298989 0.298989 1
4
 0.950164 0.290784 0.290784 1
4
 0.958309 0.295369 0.295369 1
4
 0.954121 0.291091 0.291091 1
4
 0.948406 0.286835 0.286835 1
4
 0.968587 0.304864 0.304864 1
4
 0.972893 0.308972 0.308972 1
4
 0.992146 0.328257 0.328257 1
4
 0.987312 0.32269 0.32269 1
4
 1 0.328153 0.328153 0.977205
4
 1 0.330893 0.330893 0.971406
4
 1 0.334227 0.334227 0.968738
4
 1 0.335134 0.335134 0.970153
4
 1 0.330847 0.330847 0.976109
4
 1 0.322495 0.322495 0.986523
4
 1 0.316441 0.316441 0.99957
4
 1 0.319265 0.319265 0.994699
4
 1 0.316308 0.316308 0.996656
4
 1 0.318678 0.318678 0.99063
4
 1 0.323089 0.323089 0.990575
4
 1 0.325142 0.325142 0.985416
4
 1 0.327388 0.327388 0.975506
4
 1 0.320834 0.320834 0.985415
4
 1 0.323026 0.323026 0.980668
4
 1 0.327342 0.327342 0.980228
4
 1 0.300964 0.300964 0.967371
4
 1 0.300705 0.300705 0.964388
4
 1 0.305068 0.305068 0.963144
4
 1 0.30114 0.30114 0.971291
4
 1 0.296339 0.296339 0.972545
4
 1 0.29827 0.29827 0.968567
4
 1 0.29467 0.29467 0.976649
4
 1 0.296642 0.296642 0.97665
4
 1 0.298701 0.298701 0.975499
4
 1 0.296084 0.296084 0.969546
4
 1 0.29251 0.29251 0.977637
4
 1 0.291307 0.291307 0.977966
4
 1 0.291432 0.291432 0.975224
4
 1 0.331541 0.331541 0.964937
4
 1 0.33618 0.33618 0.95475
4
 1 0.33473 0.33473 0.959264
4
 1 0.333569 0.333569 0.955554
4
 1 0.331295 0.331295 0.959964
4
 1 0.329865 0.329865 0.964503
4
 1 0.333297 0.333297 0.964016
4
 1 0.333447 0.333447 0.967053
4
 1 0.328453 0.328453 0.969281
4
 1 0.325723 0.325723 0.974848
4
 1 0.337961 0.337961 0.953839
4
 1 0.34234 0.34234 0.94802
4
 1 0.336788 0.336788 0.95015
4
 1 0.338689 0.338689 0.957059
4
 1 0.340863 0.340863 0.952502
4
 1 0.336655 0.336655 0.961368
4
 1 0.31215 0.31215 0.983036
4
 1 0.309106 0.309106 0.987296
4
 1 0.312234 0.312234 0.98774
4
 1 0.314485 0.314485 0.982706
4
 1 0.308654 0.308654 0.991574
4
 1 0.310105 0.310105 0.983698
4
 1 0.311174 0.311174 0.978739
4
 1 0.314695 0.314695 0.975886
4
 1 0.315502 0.315502 0.979125
4
 1 0.305404 0.305404 0.987572
4
 1 0.306457 0.306457 0.982593
4
 1 0.304659 0.304659 0.982262
4
 1 0.302039 0.302039 0.985909
4
 1 0.302703 0.302703 0.992408
4
 1 0.301079 0.301079 0.992686
4
 1 0.300613 0.300613 0.990626
4
 1 0.308139 0.308139 0.98298
4
 1 0.304365 0.304365 0.992799
4
 1 0.306632 0.306632 0.992242
4
 0.989478 0.314655 0.314655 1
4
 0.994826 0.318757 0.318757 1
4
 0.998968 0.325 0.325 1
4
 0.99477 0.322349 0.322349 1
4
 0.991424 0.318221 0.318221 1
4
 0.999698 0.323715 0.323715 1
4
 0.985275 0.267139 0.267139 1
4
 0.988767 0.268284 0.268284 1
4
 0.990433 0.273416 0.273416 1
4
 0.983506 0.267619 0.267619 1
4
 0.991825 0.271586 0.271586 1
4
 0.993107 0.274048 0.274048 1
4
 0.977286 0.260788 0.260788 1
4
 0.979649 0.261219 0.261219 1
4
 0.986106 0.265444 0.265444 1
4
 0.980859 0.264785 0.264785 1
4
 0.974328 0.257737 0.257737 1
4
 0.967893 0.25394 0.25394 1
4
 0.975531 0.261257 0.261257 1
4
 0.969633 0.256888 0.256888 1
4
 0.970233 0.254359 0.254359 1
4
 0.983121 0.262339 0.262339 1
4
 0.959614 0.248221 0.248221 1
4
 0.965559 0.253521 0.253521 1
4
 0.992662 0.269863 0.269863 1
4
 0.995509 0.270413 0.270413 1
4
 0.944369 0.277802 0.277802 1
4
 0.948248 0.27936 0.27936 1
4
 0.94278 0.273498 0.273498 1
4
 0.947291 0.277032 0.277032 1
4
 0.963815 0.29167 0.29167 1
4
 0.957988 0.286315 0.286315 1
4
 0.968427 0.292986 0.292986 1
4
 0.968046 0.293989 0.293989 1
4
 0.961384 0.286586 0.286586 1
4
 0.957021 0.283929 0.283929 1
4
 0.967503 0.291165 0.291165 1
4
 0.950113 0.283943 0.283943 1
4
 0.959818 0.290876 0.290876 1
4
 0.954016 0.285536 0.285536 1
4
 0.957019 0.290634 0.290634 1
4
 0.951287 0.286384 0.286384 1
4
 0.949473 0.281893 0.281893 1
4
 0.946757 0.28273 0.28273 1
4
 0.959172 0.288776 0.288776 1
4
 0.969242 0.296516 0.296516 1
4
 0.967937 0.297659 0.297659 1
4
 0.962192 0.293932 0.293932 1
4
 0.952411 0.281112 0.281112 1
4
 1 0.292809 0.292809 0.981763
4
 1 0.290154 0.290154 0.98502
4
 1 0.289667 0.289667 0.982093
4
 1 0.292095 0.292095 0.985021
4
 1 0.294598 0.294598 0.98635
4
 1 0.29219 0.29219 0.987236
4
 1 0.296814 0.296814 0.980607
4
 1 0.28954 0.28954 0.990512
4
 1 0.286849 0.286849 0.992237
4
 1 0.288961 0.288961 0.985352
4
 1 0.283334 0.283334 0.976318
4
 1 0.280034 0.280034 0.981705
4
 1 0.283846 0.283846 0.980108
4
 1 0.281563 0.281563 0.98187
4
 1 0.286796 0.286796 0.976702
4
 1 0.307388 0.307388 0.977695
4
 1 0.3127 0.3127 0.975174
4
 1 0.310699 0.310699 0.974024
4
 1 0.308876 0.308876 0.973695
4
 1 0.307169 0.307169 0.972875
4
 1 0.304449 0.304449 0.974734
4
 1 0.302956 0.302956 0.980994
4
 1 0.314214 0.314214 0.971185
4
 1 0.319665 0.319665 0.969115
4
 1 0.317049 0.317049 0.975558
4
 1 0.316722 0.316722 0.968571
4
 1 0.31831 0.31831 0.968571
4
 1 0.313802 0.313802 0.965149
4
 1 0.310478 0.310478 0.969222
4
 1 0.314694 0.314694 0.967429
4
 0.979254 0.301013 0.301013 1
4
 0.97388 0.297854 0.297854 1
4
 0.973334 0.294994 0.294994 1
4
 0.994381 0.313366 0.313366 1
4
 0.99925 0.31771 0.31771 1
4
 0.990202 0.310809 0.310809 1
4
 0.995274 0.31676 0.31676 1
4
 1 0.321757 0.321757 0.996601
4
 0.997457 0.314589 0.314589 1
4
 0.988425 0.307755 0.307755 1
4
 0.995499 0.311063 0.311063 1
4
 0.989313 0.306456 0.306456 1
4
 1 0.322017 0.322017 0.993528
4
 0.978869 0.302042 0.302042 1
4
 0.983994 0.307085 0.307085 1
4
 0.989312 0.311089 0.311089 1
4
 0.985156 0.303956 0.303956 1
4
 0.978594 0.303864 0.303864 1
4
 0.972185 0.300025 0.300025 1
4
 0.989034 0.312964 0.312964 1
4
 0.977275 0.305035 0.305035 1
4
 0.981289 0.308799 0.308799 1
4
 0.985652 0.312438 0.312438 1
4
 0.999249 0.321976 0.321976 1
4
 1 0.322336 0.322336 0.997497
4
 0.937714 0.26156 0.26156 1
4
 0.935243 0.256762 0.256762 1
4
 0.938452 0.260214 0.260214 1
4
 0.940931 0.263315 0.263315 1
4
 0.947133 0.269364 0.269364 1
4
 0.945591 0.269775 0.269775 1
4
 0.940508 0.266303 0.266303 1
4
 0.943947 0.266359 0.266359 1
4
 0.938452 0.258484 0.258484 1
4
 0.94469 0.264987 0.264987 1
4
 0.947081 0.265229 0.265229 1
4
 1 0.322265 0.322265 0.956357
4
 1 0.317837 0.317837 0.958614
4
 1 0.318741 0.318741 0.960878
4
 1 0.309221 0.309221 0.961578
4
 1 0.313569 0.313569 0.960176
4
 1 0.310247 0.310247 0.964228
4
 1 0.307741 0.307741 0.965745
4
 1 0.305016 0.305016 0.96759
4
 1 0.302773 0.302773 0.971237
4
 1 0.326518 0.326518 0.954855
4
 1 0.320712 0.320712 0.960285
4
 1 0.32232 0.32232 0.960286
4
 1 0.312068 0.312068 0.964336
4
 1 0.316306 0.316306 0.962552
4
 1 0.306028 0.306028 0.970256
4
 1 0.301831 0.301831 0.978353
4
 1 0.301088 0.301088 0.975774
4
 0.949643 0.242145 0.242145 1
4
 0.95258 0.245125 0.245125 1
4
 0.956386 0.248333 0.248333 1
4
 0.961339 0.251103 0.251103 1
4
 0.927145 0.228776 0.228776 1
4
 0.922989 0.227518 0.227518 1
4
 0.938142 0.235179 0.235179 1
4
 0.946821 0.241428 0.241428 1
4
 0.940938 0.237852 0.237852 1
4
 0.928238 0.230636 0.230636 1
4
 0.935197 0.234547 0.234547 1
4
 1 0.330997 0.330997 0.996379
4
 1 0.331649 0.331649 0.992693
4
 0.998463 0.326897 0.326897 1
4
 1 0.327167 0.327167 0.996602
4
 1 0.329963 0.329963 0.992024
4
 1 0.339679 0.339679 0.988079
4
 1 0.337338 0.337338 0.989244
4
 1 0.338002 0.338002 0.985585
4
 1 0.343504 0.343504 0.979131
4
 1 0.341254 0.341254 0.979791
4
 1 0.335619 0.335619 0.994256
4
 1 0.334718 0.334718 0.998733
4
 1 0.333962 0.333962 0.991746
4
 1 0.332411 0.332411 0.999911
4
 0.999416 0.32949 0.32949 1
4
 1 0.337839 0.337839 0.982269
4
 1 0.332918 0.332918 0.987412
4
 0.988374 0.286809 0.286809 1
4
 0.985326 0.287606 0.287606 1
4
 0.984828 0.285452 0.285452 1
4
 0.995782 0.294605 0.294605 1
4
 0.992043 0.290371 0.290371 1
4
 0.991319 0.292985 0.292985 1
4
 0.987543 0.281511 0.281511 1
4
 0.990599 0.279797 0.279797 1
4
 0.989986 0.281638 0.281638 1
4
 0.993997 0.283558 0.283558 1
4
 0.985494 0.276711 0.276711 1
4
 0.983725 0.276746 0.276746 1
4
 0.983392 0.282022 0.282022 1
4
 0.989374 0.28349 0.28349 1
4
 0.990597 0.286883 0.286883 1
4
 0.983282 0.280354 0.280354 1
4
 1 0.343078 0.343078 0.951219
4
 1 0.338842 0.338842 0.960073
4
 1 0.339762 0.339762 0.961476
4
 1 0.342923 0.342923 0.956522
4
 1 0.344172 0.344172 0.952984
4
 1 0.348947 0.348947 0.944885
4
 1 0.346382 0.346382 0.948446
4
 1 0.337721 0.337721 0.965805
4
 1 0.32595 0.32595 0.959909
4
 1 0.326364 0.326364 0.962824
4
 1 0.320485 0.320485 0.972332
4
 1 0.323112 0.323112 0.968355
4
 1 0.321759 0.321759 0.965368
4
 1 0.331473 0.331473 0.952446
4
 1 0.331894 0.331894 0.955339
4
 1 0.329213 0.329213 0.956842
4
 1 0.324568 0.324568 0.95937
4
 1 0.328209 0.328209 0.964286
4
 1 0.326347 0.326347 0.965261
4
 1 0.297374 0.297374 0.987792
4
 1 0.29202 0.29202 0.991848
4
 1 0.296642 0.296642 0.985188
4
 1 0.29096 0.29096 0.995531
4
 1 0.292917 0.292917 0.995755
4
 1 0.29597 0.29597 0.992518
4
 1 0.299612 0.299612 0.98204
4
 1 0.298933 0.298933 0.989347
4
 1 0.286941 0.286941 0.994468
4
 1 0.288582 0.288582 0.996425
4
 0.958798 0.277935 0.277935 1
4
 0.968538 0.285064 0.285064 1
4
 0.963169 0.280068 0.280068 1
4
 0.957237 0.278358 0.278358 1
4
 0.964738 0.283869 0.283869 1
4
 0.97208 0.285123 0.285123 1
4
 0.966691 0.280126 0.280126 1
4
 0.96642 0.278081 0.278081 1
4
 0.974868 0.286181 0.286181 1
4
 0.974649 0.284224 0.284224 1
4
 0.970063 0.279328 0.279328 1
4
 0.958475 0.276238 0.276238 1
4
 0.952573 0.274552 0.274552 1
4
 0.950917 0.271075 0.271075 1
4
 0.953323 0.271323 0.271323 1
4
 0.968212 0.283324 0.283324 1
4
 0.969789 0.287169 0.287169 1
4
 0.976401 0.289447 0.289447 1
4
 0.976346 0.291735 0.291735 1
4
 0.980742 0.293348 0.293348 1
4
 0.962575 0.276326 0.276326 1
4
 0.957669 0.273405 0.273405 1
4
 0.924129 0.230625 0.230625 1
4
 0.928968 0.232917 0.232917 1
4
 0.931005 0.233257 0.233257 1
4
 0.924959 0.233902 0.233902 1
4
 0.928081 0.234969 0.234969 1
4
 0.92902 0.234194 0.234194 1
4
 0.930898 0.239341 0.239341 1
4
 0.93404 0.240432 0.240432 1
4
 0.93231 0.241557 0.241557 1
4
 0.93735 0.245114 0.245114 1
4
 0.939511 0.243661 0.243661 1
4
 0.940566 0.245937 0.245937 1
4
 0.928862 0.237008 0.237008 1
4
 0.927142 0.238116 0.238116 1
4
 0.93294 0.237304 0.237304 1
4
 0.937456 0.241286 0.241286 1
4
 0.968053 0.265117 0.265117 1
4
 0.96963 0.269164 0.269164 1
4
 0.963011 0.262946 0.262946 1
4
 0.964581 0.262984 0.262984 1
4
 0.963984 0.265156 0.265156 1
4
 0.974324 0.272315 0.272315 1
4
 0.97416 0.270579 0.270579 1
4
 0.961985 0.25804 0.25804 1
4
 0.963607 0.260793 0.260793 1
4
 0.970939 0.26502 0.26502 1
4
 0.967891 0.261676 0.261676 1
4
 0.975035 0.275799 0.275799 1
4
 0.97012 0.272555 0.272555 1
4
 0.96458 0.26696 0.26696 1
4
 0.974926 0.274168 0.274168 1
4
 0.955572 0.279454 0.279454 1
4
 0.963059 0.284987 0.284987 1
4
 0.955786 0.281378 0.281378 1
4
 0.966255 0.288549 0.288549 1
4
 0.958474 0.280414 0.280414 1
4
 0.94591 0.271432 0.271432 1
4
 0.946706 0.273331 0.273331 1
4
 0.951236 0.276863 0.276863 1
4
 0.972515 0.290512 0.290512 1
4
 0.96919 0.289541 0.289541 1
4
 0.941617 0.269814 0.269814 1
4
 0.946919 0.275213 0.275213 1
4
 0.960632 0.271287 0.271287 1
4
 0.955254 0.265965 0.265965 1
4
 0.964253 0.272503 0.272503 1
4
 0.96447 0.271196 0.271196 1
4
 0.956917 0.268928 0.268928 1
4
 0.9574 0.271409 0.271409 1
4
 0.965933 0.275539 0.275539 1
4
 0.950117 0.268295 0.268295 1
4
 0.95204 0.266085 0.266085 1
4
 1 0.286368 0.286368 0.989288
4
 0.998362 0.281087 0.281087 1
4
 0.998417 0.282628 0.282628 1
4
 1 0.284128 0.284128 0.992626
4
 1 0.281439 0.281439 0.998945
4
 1 0.2859 0.2859 0.998161
4
 1 0.28622 0.28622 0.985739
4
 1 0.2886 0.2886 0.979669
4
 0.987989 0.27375 0.27375 1
4
 0.988044 0.27525 0.27525 1
4
 0.981079 0.267945 0.267945 1
4
 0.982953 0.272214 0.272214 1
4
 0.978932 0.268896 0.268896 1
4
 0.975859 0.265504 0.265504 1
4
 0.992994 0.278397 0.278397 1
4
 0.985994 0.271008 0.271008 1
4
 0.995619 0.277519 0.277519 1
4
 0.996456 0.283685 0.283685 1
4
 0.987933 0.276835 0.276835 1
4
 0.973178 0.260826 0.260826 1
4
 0.973889 0.262845 0.262845 1
4
 0.979808 0.285749 0.285749 1
4
 0.980359 0.282805 0.282805 1
4
 0.975198 0.280827 0.280827 1
4
 0.975417 0.27948 0.27948 1
4
 0.98682 0.290269 0.290269 1
4
 0.978982 0.288534 0.288534 1
4
 0.983555 0.294436 0.294436 1
4
 0.984273 0.293272 0.293272 1
4
 0.974157 0.281625 0.281625 1
4
 0.984053 0.291267 0.291267 1
4
 0.985768 0.291094 0.291094 1
4
 0.974925 0.277386 0.277386 1
4
 0.979754 0.279027 0.279027 1
4
 0.969792 0.275446 0.275446 1
4
 1 0.312315 0.312315 0.998167
4
 1 0.314679 0.314679 0.995537
4
 0.995667 0.308397 0.308397 1
4
 0.992207 0.307223 0.307223 1
4
 1 0.314655 0.314655 0.992132
4
 1 0.312809 0.312809 0.991798
4
 0.999084 0.309432 0.309432 1
4
 1 0.308973 0.308973 0.998727
4
 1 0.315176 0.315176 0.989184
4
 1 0.319202 0.319202 0.984751
4
 1 0.324077 0.324077 0.97441
4
 1 0.324939 0.324939 0.969824
4
 1 0.315587 0.315587 0.98381
4
 1 0.31733 0.31733 0.984418
4
 1 0.309485 0.309485 0.995759
4
 1 0.309735 0.309735 0.992688
4
 1 0.319618 0.319618 0.979401
4
 1 0.320468 0.320468 0.974792
4
 1 0.322238 0.322238 0.975395
4
 0.928392 0.241592 0.241592 1
4
 0.933567 0.24386 0.24386 1
4
 0.93341 0.24515 0.24515 1
4
 0.941834 0.248282 0.248282 1
4
 0.943421 0.251769 0.251769 1
4
 0.944004 0.250959 0.250959 1
4
 1 0.350698 0.350698 0.961479
4
 1 0.351706 0.351706 0.963966
4
 1 0.35512 0.35512 0.956095
4
 1 0.338293 0.338293 0.971572
4
 1 0.341256 0.341256 0.965752
4
 1 0.341789 0.341789 0.962233
4
 1 0.335582 0.335582 0.973537
4
 1 0.334306 0.334306 0.973154
4
 1 0.342876 0.342876 0.969556
4
 1 0.340908 0.340908 0.9701
4
 1 0.339514 0.339514 0.976221
4
 1 0.335239 0.335239 0.977921
4
 1 0.334569 0.334569 0.981331
4
 1 0.34588 0.34588 0.963748
4
 1 0.348877 0.348877 0.965699
4
 1 0.349395 0.349395 0.95889
4
 1 0.352263 0.352263 0.957814
4
 1 0.344465 0.344465 0.969828
4
 1 0.344432 0.344432 0.960776
4
 1 0.34739 0.34739 0.959428
4
 1 0.347734 0.347734 0.971683
4
 1 0.345456 0.345456 0.972337
4
 0.947193 0.243836 0.243836 1
4
 0.953543 0.247597 0.247597 1
4
 0.943848 0.240779 0.240779 1
4
 0.950976 0.247027 0.247027 1
4
 0.939248 0.239874 0.239874 1
4
 0.941307 0.240224 0.240224 1
4
 0.943794 0.243899 0.243899 1
4
 0.950762 0.248217 0.248217 1
4
 0.957137 0.252046 0.252046 1
4
 0.962311 0.253635 0.253635 1
4
 0.963013 0.255598 0.255598 1
4
 0.935932 0.236867 0.236867 1
4
 0.938404 0.24049 0.24049 1
4
 1 0.347932 0.347932 0.955933
4
 1 0.349221 0.349221 0.952824
4
 1 0.346225 0.346225 0.953734
4
 1 0.3538 0.3538 0.953521
4
 1 0.352221 0.352221 0.951488
4
 1 0.355112 0.355112 0.950421
4
 1 0.359277 0.359277 0.947597
4
 1 0.353089 0.353089 0.945735
4
 1 0.35006 0.35006 0.946638
4
 1 0.355838 0.355838 0.941919
4
 1 0.350493 0.350493 0.9493
4
 1 0.356279 0.356279 0.944568
4
 1 0.357673 0.357673 0.945577
4
 1 0.360457 0.360457 0.941762
4
 0.949908 0.248855 0.248855 1
4
 0.944006 0.246809 0.246809 1
4
 0.947564 0.248329 0.248329 1
4
 0.95456 0.252726 0.252726 1
4
 0.958534 0.255964 0.255964 1
4
 0.962796 0.256831 0.256831 1
4
 0.948628 0.250649 0.250649 1
4
 0.951028 0.253823 0.253823 1
4
 0.947244 0.251801 0.251801 1
4
 0.954613 0.255386 0.255386 1
4
 0.956169 0.255423 0.255423 1
4
 0.994936 0.327133 0.327133 1
4
 0.990755 0.324464 0.324464 1
4
 0.972129 0.306457 0.306457 1
4
 0.96935 0.301781 0.301781 1
4
 0.963597 0.298003 0.298003 1
4
 0.957825 0.293645 0.293645 1
4
 0.973331 0.305505 0.305505 1
4
 0.966469 0.300888 0.300888 1
4
 0.981178 0.314746 0.314746 1
4
 0.977658 0.309622 0.309622 1
4
 0.990088 0.321585 0.321585 1
4
 0.990923 0.320078 0.320078 1
4
 0.982391 0.313769 0.313769 1
4
 0.986758 0.317467 0.317467 1
4
 0.965114 0.297411 0.297411 1
4
 0.974863 0.304898 0.304898 1
4
 0.96799 0.30029 0.30029 1
4
 0.95364 0.289393 0.289393 1
4
 0.962246 0.296531 0.296531 1
4
 0.983219 0.312298 0.312298 1
4
 0.997018 0.275661 0.275661 1
4
 0.998588 0.273741 0.273741 1
4
 1 0.276672 0.276672 0.999
4
 1 0.280541 0.280541 0.985516
4
 1 0.283398 0.283398 0.986403
4
 1 0.285755 0.285755 0.980329
4
 1 0.280906 0.280906 0.988731
4
 1 0.276083 0.276083 0.992903
4
 1 0.278646 0.278646 0.990509
4
 1 0.281294 0.281294 0.995361
4
 1 0.286343 0.286343 0.982975
4
 1 0.281484 0.281484 0.9914
4
 1 0.27882 0.27882 0.997711
4
 1 0.276443 0.276443 0.996143
4
 1 0.318796 0.318796 0.964825
4
 1 0.343337 0.343337 0.975838
4
 1 0.33612 0.33612 0.981607
4
 0.953594 0.25955 0.25955 1
4
 0.94884 0.255337 0.255337 1
4
 0.958587 0.258657 0.258657 1
4
 0.957995 0.260793 0.260793 1
4
 0.95322 0.25656 0.25656 1
4
 0.954183 0.258715 0.258715 1
4
 0.993048 0.287011 0.287011 1
4
 0.99584 0.285552 0.285552 1
4
 0.995616 0.287407 0.287407 1
4
 1 0.300054 0.300054 0.99794
4
 1 0.30392 0.30392 0.997101
4
 0.997572 0.29902 0.29902 1
4
 0.998022 0.29468 0.29468 1
4
 1 0.297983 0.297983 0.996148
4
 0.997293 0.297333 0.297333 1
4
 0.996846 0.290846 0.290846 1
4
 1 0.294807 0.294807 0.999902
4
 0.99965 0.289367 0.289367 1
4
 1 0.294452 0.294452 0.997323
4
 0.968001 0.258449 0.258449 1
4
 0.97948 0.275609 0.275609 1
4
 0.978822 0.270444 0.270444 1
4
 0.981077 0.273816 0.273816 1
4
 0.977064 0.270479 0.270479 1
4
 0.971758 0.263778 0.263778 1
4
 0.985987 0.30002 0.30002 1
4
 0.98256 0.298877 0.298877 1
4
 0.975742 0.294144 0.294144 1
4
 0.983499 0.296762 0.296762 1
4
 0.989481 0.303829 0.303829 1
4
 0.995109 0.304926 0.304926 1
4
 0.990426 0.301679 0.301679 1
4
 0.9792 0.297878 0.297878 1
4
 0.992598 0.301616 0.301616 1
4
 0.993323 0.300424 0.300424 1
4
 1 0.305937 0.305937 0.999624
4
 0.988649 0.297224 0.297224 1
4
 0.996396 0.301596 0.301596 1
4
 0.991095 0.295874 0.295874 1
4
 0.998132 0.301417 0.301417 1
4
 1 0.328419 0.328419 0.9913
4
 1 0.325755 0.325755 0.992636
4
 1 0.331888 0.331888 0.983317
4
 1 0.329197 0.329197 0.984642
4
 1 0.331289 0.331289 0.979514
4
 1 0.328539 0.328539 0.988076
4
 1 0.327945 0.327945 0.984255
1
 1

